100 523
1 2 -1
1 21 1
1 71 1
1 76 -1
1 78 -1
2 5 -1
2 29 -1
2 70 -1
2 73 1
2 83 1
2 92 1
3 9 -1
3 15 -1
3 17 1
3 23 1
3 49 -1
3 61 1
3 77 -1
3 98 1
4 6 -1
4 12 1
4 15 -1
4 28 1
4 38 1
4 39 -1
4 54 -1
4 56 -1
4 68 -1
4 88 1
4 92 -1
4 94 1
5 9 1
5 17 1
5 33 1
5 59 -1
5 63 1
5 72 -1
5 73 -1
5 74 -1
5 80 -1
5 82 -1
5 89 1
5 95 1
5 98 -1
6 26 -1
6 32 -1
6 37 -1
6 48 1
6 63 1
6 64 -1
6 77 -1
6 91 1
7 20 -1
7 56 1
7 62 -1
7 63 -1
7 66 -1
7 68 -1
7 84 -1
7 87 1
7 88 -1
7 89 1
7 92 1
8 10 -1
8 16 -1
8 17 -1
8 21 1
8 25 -1
8 27 -1
8 28 -1
8 35 1
8 46 1
8 87 -1
8 90 1
8 98 -1
9 21 1
9 31 1
9 40 -1
9 44 -1
9 47 -1
9 60 -1
9 75 1
9 100 -1
10 14 -1
10 17 -1
10 26 1
10 27 1
10 35 -1
10 46 -1
10 48 -1
10 57 -1
10 64 -1
10 65 -1
10 80 1
10 82 1
10 95 -1
10 98 1
11 25 -1
11 26 1
11 31 -1
11 37 -1
11 44 -1
11 57 -1
11 59 -1
11 72 1
11 79 1
11 87 1
11 90 1
11 99 1
12 32 -1
12 55 -1
12 68 1
12 96 -1
12 99 1
12 100 -1
13 17 -1
13 32 -1
13 35 -1
13 40 1
13 57 1
13 61 -1
13 63 1
13 67 -1
13 70 1
13 94 -1
13 96 1
14 25 1
14 33 -1
14 37 1
14 41 -1
14 52 1
14 61 1
14 62 1
14 72 1
14 74 -1
14 88 -1
14 89 1
14 91 -1
14 93 1
15 16 1
15 39 1
15 74 1
15 76 -1
15 83 1
15 87 -1
15 100 -1
16 22 1
16 23 1
16 30 -1
16 32 -1
16 35 1
16 43 1
16 54 -1
16 71 -1
16 93 -1
17 28 -1
17 44 1
17 47 -1
17 54 1
17 56 1
17 62 -1
17 67 1
17 78 1
17 82 1
17 100 1
18 20 -1
18 31 -1
18 34 -1
18 43 1
18 57 -1
18 62 -1
18 80 1
18 87 1
18 91 1
18 92 -1
19 31 1
19 34 1
19 52 1
19 58 1
19 88 -1
19 93 1
20 31 -1
20 32 1
20 35 -1
20 36 -1
20 54 -1
20 65 1
20 73 1
20 75 -1
20 88 -1
20 90 -1
20 92 -1
20 99 -1
21 27 1
21 33 -1
21 36 1
21 40 1
21 70 -1
21 71 1
21 83 -1
21 87 -1
21 88 -1
21 95 1
21 96 1
22 23 1
22 35 1
22 41 -1
22 60 -1
22 72 -1
23 28 -1
23 29 -1
23 37 -1
23 40 -1
23 59 1
23 60 -1
23 62 1
23 81 -1
23 84 -1
24 27 -1
24 30 -1
24 32 -1
24 37 -1
24 41 -1
24 47 -1
24 49 1
24 71 -1
24 72 1
24 77 -1
24 84 -1
24 90 -1
25 29 -1
25 36 1
25 54 1
25 86 -1
26 30 1
26 35 -1
26 54 1
26 77 1
26 80 1
26 86 1
26 87 -1
27 29 1
27 35 -1
27 41 1
27 53 -1
27 54 -1
27 62 1
27 66 1
27 68 -1
27 90 1
27 100 -1
28 29 1
28 50 1
28 51 1
28 55 1
28 60 1
28 69 -1
28 80 1
28 81 -1
28 85 1
28 94 1
29 57 1
29 58 1
29 68 -1
29 72 1
29 75 -1
29 78 1
29 89 -1
29 91 -1
29 95 1
30 32 -1
30 42 1
30 71 1
31 39 1
31 44 1
31 55 1
31 61 -1
31 67 1
31 69 -1
31 79 -1
31 83 1
31 85 1
31 90 1
31 99 1
32 48 -1
32 55 -1
32 65 -1
32 73 1
32 88 -1
32 98 1
33 36 -1
33 63 1
33 70 1
33 72 -1
33 74 -1
33 76 1
33 79 -1
33 86 -1
33 98 -1
33 100 1
34 35 -1
34 51 1
34 59 -1
34 61 -1
34 62 1
34 63 -1
34 68 -1
34 79 -1
34 85 1
35 37 -1
35 43 -1
35 47 1
35 68 1
35 83 1
35 87 -1
35 91 -1
36 40 1
36 53 -1
36 55 1
36 57 1
36 66 1
36 76 -1
36 78 1
36 81 1
37 42 -1
37 53 1
37 68 1
37 76 1
37 81 -1
37 100 1
38 41 -1
38 45 1
38 52 1
38 61 1
38 64 -1
38 71 -1
38 82 1
38 84 1
38 99 -1
38 100 -1
39 50 -1
39 54 1
39 56 1
39 60 1
39 69 1
39 77 -1
39 78 -1
39 79 1
39 81 1
39 84 1
39 85 -1
40 50 1
40 61 -1
40 65 1
40 67 -1
40 68 -1
40 97 1
41 45 -1
41 59 1
41 61 -1
41 68 -1
41 70 -1
41 89 -1
41 100 -1
42 53 -1
42 62 -1
42 77 -1
42 92 1
43 69 -1
43 77 -1
43 80 -1
43 91 -1
43 100 -1
44 48 -1
44 49 1
44 58 -1
44 59 -1
44 60 -1
44 66 1
44 78 1
44 80 -1
44 83 -1
44 93 1
45 46 -1
45 49 -1
45 55 1
45 66 -1
45 78 -1
45 84 -1
45 99 -1
45 100 -1
46 75 -1
46 82 -1
46 91 -1
46 97 -1
47 60 1
47 83 1
47 89 -1
48 56 1
48 61 1
48 66 1
48 89 -1
48 94 -1
48 99 1
49 60 1
49 65 -1
49 83 1
49 90 -1
50 52 -1
50 53 1
50 54 -1
50 57 -1
50 77 -1
50 89 1
50 99 -1
51 60 -1
51 70 -1
51 76 1
51 79 1
51 85 1
52 77 -1
52 87 -1
52 94 -1
52 99 -1
53 68 1
53 70 -1
53 95 -1
54 56 -1
54 61 1
54 68 1
54 90 1
54 92 1
55 58 1
55 63 1
55 64 1
55 80 1
55 92 -1
56 63 -1
56 88 -1
56 92 -1
57 74 -1
57 75 -1
57 81 1
57 92 1
57 99 -1
58 59 -1
58 71 -1
58 80 1
58 93 1
60 67 1
60 69 -1
60 78 -1
60 79 1
60 86 -1
61 75 -1
61 82 -1
61 94 1
62 66 -1
62 71 -1
62 74 -1
62 78 -1
62 83 -1
63 71 1
64 82 1
64 96 1
65 70 -1
65 89 -1
66 72 1
66 82 1
66 93 -1
68 70 -1
68 74 -1
68 89 -1
68 90 1
69 73 -1
69 86 1
69 91 -1
69 93 -1
69 94 -1
70 78 1
70 79 -1
70 84 1
70 95 1
71 82 1
71 85 1
71 100 1
72 99 -1
73 78 1
73 79 -1
74 79 1
75 78 1
75 80 1
75 87 -1
75 91 -1
75 94 -1
75 99 1
76 82 -1
76 83 1
76 91 1
77 95 -1
77 99 -1
77 100 -1
79 88 1
79 97 -1
79 100 1
80 89 -1
80 96 -1
81 89 1
81 91 -1
81 100 -1
84 91 1
84 92 1
85 95 -1
85 97 -1
86 99 1
88 97 1
88 99 -1
89 93 -1
90 97 -1
90 98 1
93 96 1
93 99 -1
95 99 -1
